sat
(:eliminated-applications 465
 :eliminated-vars         1368
 :max-memory              24.30
 :memory                  20.85
 :nlsat-conflicts         16744
 :nlsat-decisions         34317
 :nlsat-propagations      260765
 :nlsat-stages            57960
 :num-allocs              31441950
 :rlimit-count            26568675
 :time                    6.36
 :total-time              6.39)
